coords = array2d(1..35, 1..2, [182, 135, 845, 241, 21, 568, 368, 922, 465, 246,
    971, 360, 858, 927, 752, 602, 709, 816, 240, 37, 881, 30, 255,
    211, 707, 576, 163, 974, 353, 66, 85, 102, 413, 646, 633, 659,
    461, 480, 905, 970, 881, 814, 924, 678, 439, 970, 379, 781, 204,
    683, 368, 339, 210, 933, 383, 796, 81, 88, 570, 499, 785, 37, 960,
    255, 567, 624, 616, 471, 768, 566]);

n = 35;

